# Solution for model r5_t36_m9_6 Batch Number: 5
# Finished Task: 36 / 36
# Makespan: 663.0, Total Distance: 575.0, Total Time: 2.3698
# R O S F Batch
0 0 29 0.0 0.0 -1
1 1 28 0.0 0.0 -1
2 2 23 0.0 0.0 -1
3 3 15 0.0 0.0 -1
4 4 5 0.0 0.0 -1
5 4 6 105.0 128.0 0
6 4 8 159.0 196.0 0
7 2 32 464.0 489.0 3
8 4 40 216.0 245.0 0
9 2 39 561.0 583.0 3
10 4 22 419.0 449.0 2
11 3 13 311.0 343.0 1
12 1 17 307.0 343.0 0
13 3 37 368.0 405.0 3
14 1 36 537.0 571.0 3
15 3 18 155.0 181.0 0
16 4 19 573.0 611.0 3
17 1 14 504.0 537.0 2
18 3 38 192.0 212.0 0
19 4 -1 628.0 663.0 4
20 4 33 319.0 343.0 0
21 2 30 280.0 319.0 2
22 4 27 461.0 500.0 2
23 2 21 230.0 257.0 0
24 1 12 249.0 283.0 0
25 1 -1 600.0 628.0 4
26 2 35 385.0 408.0 3
27 4 16 512.0 537.0 2
28 1 24 202.0 230.0 0
29 0 34 146.0 170.0 0
30 2 26 334.0 362.0 3
31 0 -1 634.0 663.0 4
32 2 9 516.0 544.0 3
33 4 10 355.0 393.0 2
34 0 31 577.0 614.0 4
35 2 7 422.0 452.0 3
36 1 25 577.0 600.0 4
37 3 -1 544.0 577.0 4
38 3 11 251.0 273.0 0
39 2 -1 583.0 609.0 3
40 4 20 281.0 307.0 0
